p edge 60 544
e 1 3
e 1 9
e 1 12
e 1 15
e 1 17
e 1 18
e 1 19
e 1 20
e 1 21
e 1 32
e 1 35
e 1 36
e 1 37
e 1 42
e 1 43
e 1 47
e 1 48
e 1 49
e 1 50
e 1 58
e 2 7
e 2 14
e 2 16
e 2 20
e 2 21
e 2 23
e 2 28
e 2 30
e 2 33
e 2 37
e 2 38
e 2 40
e 2 42
e 2 46
e 2 50
e 2 51
e 2 53
e 2 54
e 2 57
e 2 59
e 3 10
e 3 14
e 3 17
e 3 21
e 3 23
e 3 27
e 3 28
e 3 30
e 3 33
e 3 37
e 3 44
e 3 45
e 3 48
e 3 49
e 3 52
e 3 53
e 3 56
e 3 59
e 4 8
e 4 16
e 4 27
e 4 31
e 4 34
e 4 45
e 4 48
e 4 49
e 4 50
e 4 52
e 4 53
e 4 57
e 4 58
e 4 59
e 5 15
e 5 17
e 5 26
e 5 32
e 5 33
e 5 38
e 5 41
e 5 43
e 5 47
e 5 48
e 5 55
e 5 56
e 6 7
e 6 8
e 6 9
e 6 11
e 6 22
e 6 26
e 6 27
e 6 28
e 6 29
e 6 30
e 6 34
e 6 36
e 6 37
e 6 41
e 6 45
e 6 48
e 6 55
e 6 57
e 6 59
e 7 9
e 7 11
e 7 13
e 7 16
e 7 17
e 7 18
e 7 19
e 7 24
e 7 27
e 7 28
e 7 31
e 7 38
e 7 43
e 7 44
e 7 49
e 7 51
e 7 52
e 7 53
e 7 60
e 8 10
e 8 12
e 8 17
e 8 20
e 8 21
e 8 25
e 8 26
e 8 30
e 8 33
e 8 35
e 8 37
e 8 43
e 8 45
e 8 46
e 8 51
e 8 52
e 8 53
e 9 11
e 9 15
e 9 19
e 9 20
e 9 23
e 9 24
e 9 29
e 9 31
e 9 35
e 9 40
e 9 42
e 9 47
e 9 49
e 9 50
e 9 52
e 9 59
e 10 16
e 10 17
e 10 27
e 10 29
e 10 34
e 10 44
e 10 45
e 10 51
e 10 52
e 10 53
e 10 58
e 11 13
e 11 14
e 11 15
e 11 16
e 11 19
e 11 21
e 11 23
e 11 25
e 11 27
e 11 30
e 11 32
e 11 34
e 11 36
e 11 38
e 11 40
e 11 42
e 11 47
e 11 53
e 11 57
e 12 14
e 12 18
e 12 21
e 12 31
e 12 33
e 12 38
e 12 41
e 12 44
e 12 45
e 12 54
e 12 55
e 12 57
e 12 59
e 13 14
e 13 18
e 13 21
e 13 30
e 13 36
e 13 38
e 13 41
e 13 55
e 13 56
e 13 60
e 14 16
e 14 22
e 14 26
e 14 33
e 14 38
e 14 41
e 14 42
e 14 45
e 14 49
e 14 54
e 14 56
e 14 57
e 14 58
e 15 18
e 15 21
e 15 22
e 15 23
e 15 25
e 15 27
e 15 28
e 15 35
e 15 36
e 15 41
e 15 44
e 15 47
e 15 48
e 15 56
e 15 59
e 15 60
e 16 18
e 16 19
e 16 20
e 16 22
e 16 24
e 16 30
e 16 31
e 16 34
e 16 35
e 16 37
e 16 38
e 16 39
e 16 43
e 16 46
e 16 49
e 16 51
e 16 52
e 16 53
e 16 54
e 16 55
e 16 56
e 16 60
e 17 20
e 17 25
e 17 27
e 17 29
e 17 34
e 17 37
e 17 38
e 17 41
e 17 49
e 17 51
e 17 52
e 17 55
e 18 21
e 18 23
e 18 27
e 18 29
e 18 30
e 18 31
e 18 33
e 18 39
e 18 47
e 18 49
e 18 51
e 18 52
e 18 53
e 18 54
e 18 59
e 18 60
e 19 21
e 19 25
e 19 27
e 19 31
e 19 36
e 19 43
e 19 44
e 19 45
e 19 51
e 19 53
e 20 21
e 20 24
e 20 26
e 20 28
e 20 30
e 20 33
e 20 34
e 20 35
e 20 44
e 20 49
e 20 50
e 20 51
e 20 58
e 20 59
e 21 26
e 21 27
e 21 33
e 21 39
e 21 43
e 21 45
e 21 47
e 21 50
e 21 52
e 21 54
e 21 58
e 21 59
e 22 24
e 22 26
e 22 28
e 22 31
e 22 35
e 22 36
e 22 40
e 22 41
e 22 45
e 22 50
e 22 51
e 22 53
e 23 25
e 23 26
e 23 28
e 23 29
e 23 36
e 23 39
e 23 47
e 23 50
e 23 53
e 23 54
e 23 58
e 23 59
e 23 60
e 24 25
e 24 26
e 24 30
e 24 31
e 24 35
e 24 38
e 24 40
e 24 48
e 24 54
e 24 57
e 24 59
e 24 60
e 25 34
e 25 35
e 25 36
e 25 40
e 25 42
e 25 45
e 25 46
e 25 50
e 25 51
e 25 55
e 26 27
e 26 28
e 26 30
e 26 35
e 26 37
e 26 48
e 26 49
e 26 51
e 26 57
e 27 31
e 27 33
e 27 35
e 27 36
e 27 38
e 27 40
e 27 52
e 27 56
e 27 59
e 27 60
e 28 31
e 28 32
e 28 33
e 28 34
e 28 36
e 28 38
e 28 42
e 28 45
e 28 48
e 28 49
e 28 50
e 28 55
e 29 37
e 29 38
e 29 39
e 29 44
e 29 45
e 29 47
e 29 49
e 29 51
e 30 31
e 30 32
e 30 36
e 30 40
e 30 42
e 30 48
e 30 49
e 30 52
e 30 56
e 30 57
e 30 60
e 31 33
e 31 36
e 31 37
e 31 40
e 31 48
e 31 49
e 31 50
e 31 56
e 32 42
e 32 43
e 32 44
e 32 46
e 32 50
e 32 51
e 32 53
e 32 54
e 32 55
e 32 57
e 32 60
e 33 35
e 33 38
e 33 42
e 33 43
e 33 49
e 33 52
e 33 53
e 34 35
e 34 36
e 34 42
e 34 44
e 34 51
e 34 56
e 34 58
e 34 60
e 35 37
e 35 41
e 35 42
e 35 44
e 35 45
e 35 54
e 35 57
e 36 38
e 36 40
e 36 45
e 36 50
e 36 58
e 37 38
e 37 40
e 37 43
e 37 47
e 37 48
e 37 51
e 37 52
e 37 55
e 38 39
e 38 40
e 38 41
e 38 44
e 38 47
e 38 48
e 38 52
e 38 54
e 38 55
e 39 42
e 39 44
e 39 50
e 39 51
e 40 47
e 40 48
e 40 53
e 40 55
e 41 44
e 41 45
e 41 46
e 41 52
e 41 53
e 41 57
e 41 60
e 42 47
e 42 54
e 42 55
e 42 60
e 43 44
e 43 45
e 43 49
e 43 50
e 43 55
e 43 57
e 44 48
e 44 49
e 44 54
e 44 55
e 44 58
e 44 59
e 45 46
e 45 51
e 45 55
e 45 58
e 46 47
e 46 55
e 46 60
e 47 58
e 48 52
e 48 56
e 49 52
e 49 56
e 49 58
e 49 59
e 50 51
e 50 54
e 50 56
e 51 52
e 51 53
e 51 55
e 51 56
e 52 58
e 53 55
e 53 58
e 53 60
e 54 55
e 54 56
e 54 59
e 55 57
e 55 58
